[VALIDATOR STDOUT]
Checking plan: /home/jfan5/Safety-gen/runs/benchmark/optic/blocksworld_20260201_170613/blocksworld/optic_results/bw_ops3_n07_seed7001.plan
Plan executed successfully - checking goal
Plan valid
Final value: 34 

Successful plans:
Value: 34
 /home/jfan5/Safety-gen/runs/benchmark/optic/blocksworld_20260201_170613/blocksworld/optic_results/bw_ops3_n07_seed7001.plan 34
